p tw 81 160
0 1
0 2
0 33
0 34
1 2
1 10
1 48
2 9
2 67
3 4
3 5
3 13
3 46
4 5
4 28
4 37
5 27
5 53
6 7
6 8
6 43
6 44
7 8
7 68
7 80
8 45
8 78
9 10
9 11
9 67
10 11
10 48
11 53
11 75
12 13
12 14
12 78
12 80
13 14
13 46
14 64
14 68
15 16
15 17
15 35
15 36
16 17
16 42
16 51
17 52
17 73
18 19
18 20
18 70
18 71
19 20
19 65
19 66
20 74
20 79
21 22
21 23
21 31
21 47
22 23
22 49
22 50
23 32
23 62
24 25
24 26
24 51
24 52
25 26
25 54
25 69
26 55
26 73
27 28
27 29
27 53
28 29
28 37
29 67
29 75
30 31
30 32
30 61
30 72
31 32
31 47
32 62
33 34
33 48
33 69
34 54
34 55
35 36
35 59
35 63
36 41
36 42
37 46
37 64
38 39
38 40
38 72
38 76
39 40
39 60
39 77
40 61
40 62
41 42
41 59
41 60
42 51
43 44
43 45
44 45
45 78
46 64
47 50
47 56
48 69
49 50
49 57
49 58
50 56
51 52
52 73
53 75
54 55
54 69
55 73
56 58
56 74
57 58
57 65
57 79
58 74
59 60
59 63
60 77
61 62
61 72
63 76
63 77
64 68
65 66
65 79
66 70
66 71
67 75
68 80
70 71
72 76
74 79
76 77
78 80
